c Sudoku solution
p cnf 729 0
186 0
258 0
264 0
275 0
335 0
374 0
411 0
457 0
522 0
537 0
596 0
629 0
634 0
692 0
715 0
425 0
724 0
114 0
769 0
781 0
827 0
839 0
865 0
995 0
872 0
923 0
931 0
944 0
554 0
987 0
979 0
776 0
747 0
677 0
571 0
219 0
317 0
297 0
167 0
912 0
738 0
816 0
752 0
956 0
968 0
793 0
436 0
563 0
462 0
518 0
613 0
366 0
226 0
241 0
843 0
851 0
646 0
661 0
655 0
549 0
448 0
473 0
688 0
585 0
145 0
342 0
132 0
233 0
282 0
178 0
383 0
153 0
359 0
121 0
328 0
199 0
391 0
884 0
898 0
489 0
494 0
